tsp_instances/TSP20/instance98.tsp
NODE_COORD_SECTION
0 87 146
1 25 168
2 175 22
3 45 161
4 160 32
5 163 143
6 181 82
7 98 97
8 86 182
9 169 155
10 183 111
11 107 27
12 176 54
13 130 198
14 113 20
15 2 103
16 165 10
17 142 66
18 117 191
19 62 82
