tsp_instances/TSP20/instance98.opt.tour
TOUR_SECTION
1
4
2
16
20
8
18
12
15
17
3
5
13
7
11
6
10
14
19
9
-1